certificates/rado_a13_c97_N56.cnf
c Rad2 upper bound instance: x1 + 13*x2 - x3 = 97, interval [1,56]
p cnf 56 478
1 8 0
-1 -8 0
1 9 21 0
-1 -9 -21 0
1 10 34 0
-1 -10 -34 0
1 11 47 0
-1 -11 -47 0
2 8 9 0
-2 -8 -9 0
2 9 22 0
-2 -9 -22 0
2 10 35 0
-2 -10 -35 0
2 11 48 0
-2 -11 -48 0
3 8 10 0
-3 -8 -10 0
3 9 23 0
-3 -9 -23 0
3 10 36 0
-3 -10 -36 0
3 11 49 0
-3 -11 -49 0
4 8 11 0
-4 -8 -11 0
4 9 24 0
-4 -9 -24 0
4 10 37 0
-4 -10 -37 0
4 11 50 0
-4 -11 -50 0
5 8 12 0
-5 -8 -12 0
5 9 25 0
-5 -9 -25 0
5 10 38 0
-5 -10 -38 0
5 11 51 0
-5 -11 -51 0
6 8 13 0
-6 -8 -13 0
6 9 26 0
-6 -9 -26 0
6 10 39 0
-6 -10 -39 0
6 11 52 0
-6 -11 -52 0
1 7 0
-1 -7 0
7 8 14 0
-7 -8 -14 0
7 9 27 0
-7 -9 -27 0
7 10 40 0
-7 -10 -40 0
7 11 53 0
-7 -11 -53 0
2 7 8 0
-2 -7 -8 0
8 15 0
-8 -15 0
8 9 28 0
-8 -9 -28 0
8 10 41 0
-8 -10 -41 0
8 11 54 0
-8 -11 -54 0
3 7 9 0
-3 -7 -9 0
8 9 16 0
-8 -9 -16 0
9 29 0
-9 -29 0
9 10 42 0
-9 -10 -42 0
9 11 55 0
-9 -11 -55 0
4 7 10 0
-4 -7 -10 0
8 10 17 0
-8 -10 -17 0
9 10 30 0
-9 -10 -30 0
10 43 0
-10 -43 0
10 11 56 0
-10 -11 -56 0
5 7 11 0
-5 -7 -11 0
8 11 18 0
-8 -11 -18 0
9 11 31 0
-9 -11 -31 0
10 11 44 0
-10 -11 -44 0
6 7 12 0
-6 -7 -12 0
8 12 19 0
-8 -12 -19 0
9 12 32 0
-9 -12 -32 0
10 12 45 0
-10 -12 -45 0
7 13 0
-7 -13 0
8 13 20 0
-8 -13 -20 0
9 13 33 0
-9 -13 -33 0
10 13 46 0
-10 -13 -46 0
8 14 21 0
-8 -14 -21 0
9 14 34 0
-9 -14 -34 0
10 14 47 0
-10 -14 -47 0
7 9 15 0
-7 -9 -15 0
8 15 22 0
-8 -15 -22 0
9 15 35 0
-9 -15 -35 0
10 15 48 0
-10 -15 -48 0
7 10 16 0
-7 -10 -16 0
8 16 23 0
-8 -16 -23 0
9 16 36 0
-9 -16 -36 0
10 16 49 0
-10 -16 -49 0
7 11 17 0
-7 -11 -17 0
8 17 24 0
-8 -17 -24 0
9 17 37 0
-9 -17 -37 0
10 17 50 0
-10 -17 -50 0
7 12 18 0
-7 -12 -18 0
8 18 25 0
-8 -18 -25 0
9 18 38 0
-9 -18 -38 0
10 18 51 0
-10 -18 -51 0
7 13 19 0
-7 -13 -19 0
8 19 26 0
-8 -19 -26 0
9 19 39 0
-9 -19 -39 0
10 19 52 0
-10 -19 -52 0
1 6 20 0
-1 -6 -20 0
7 14 20 0
-7 -14 -20 0
8 20 27 0
-8 -20 -27 0
9 20 40 0
-9 -20 -40 0
10 20 53 0
-10 -20 -53 0
2 6 21 0
-2 -6 -21 0
7 15 21 0
-7 -15 -21 0
8 21 28 0
-8 -21 -28 0
9 21 41 0
-9 -21 -41 0
10 21 54 0
-10 -21 -54 0
3 6 22 0
-3 -6 -22 0
7 16 22 0
-7 -16 -22 0
8 22 29 0
-8 -22 -29 0
9 22 42 0
-9 -22 -42 0
10 22 55 0
-10 -22 -55 0
4 6 23 0
-4 -6 -23 0
7 17 23 0
-7 -17 -23 0
8 23 30 0
-8 -23 -30 0
9 23 43 0
-9 -23 -43 0
10 23 56 0
-10 -23 -56 0
5 6 24 0
-5 -6 -24 0
7 18 24 0
-7 -18 -24 0
8 24 31 0
-8 -24 -31 0
9 24 44 0
-9 -24 -44 0
6 25 0
-6 -25 0
7 19 25 0
-7 -19 -25 0
8 25 32 0
-8 -25 -32 0
9 25 45 0
-9 -25 -45 0
6 7 26 0
-6 -7 -26 0
7 20 26 0
-7 -20 -26 0
8 26 33 0
-8 -26 -33 0
9 26 46 0
-9 -26 -46 0
6 8 27 0
-6 -8 -27 0
7 21 27 0
-7 -21 -27 0
8 27 34 0
-8 -27 -34 0
9 27 47 0
-9 -27 -47 0
6 9 28 0
-6 -9 -28 0
7 22 28 0
-7 -22 -28 0
8 28 35 0
-8 -28 -35 0
9 28 48 0
-9 -28 -48 0
6 10 29 0
-6 -10 -29 0
7 23 29 0
-7 -23 -29 0
8 29 36 0
-8 -29 -36 0
9 29 49 0
-9 -29 -49 0
6 11 30 0
-6 -11 -30 0
7 24 30 0
-7 -24 -30 0
8 30 37 0
-8 -30 -37 0
9 30 50 0
-9 -30 -50 0
6 12 31 0
-6 -12 -31 0
7 25 31 0
-7 -25 -31 0
8 31 38 0
-8 -31 -38 0
9 31 51 0
-9 -31 -51 0
6 13 32 0
-6 -13 -32 0
7 26 32 0
-7 -26 -32 0
8 32 39 0
-8 -32 -39 0
9 32 52 0
-9 -32 -52 0
1 5 33 0
-1 -5 -33 0
6 14 33 0
-6 -14 -33 0
7 27 33 0
-7 -27 -33 0
8 33 40 0
-8 -33 -40 0
9 33 53 0
-9 -33 -53 0
2 5 34 0
-2 -5 -34 0
6 15 34 0
-6 -15 -34 0
7 28 34 0
-7 -28 -34 0
8 34 41 0
-8 -34 -41 0
9 34 54 0
-9 -34 -54 0
3 5 35 0
-3 -5 -35 0
6 16 35 0
-6 -16 -35 0
7 29 35 0
-7 -29 -35 0
8 35 42 0
-8 -35 -42 0
9 35 55 0
-9 -35 -55 0
4 5 36 0
-4 -5 -36 0
6 17 36 0
-6 -17 -36 0
7 30 36 0
-7 -30 -36 0
8 36 43 0
-8 -36 -43 0
9 36 56 0
-9 -36 -56 0
5 37 0
-5 -37 0
6 18 37 0
-6 -18 -37 0
7 31 37 0
-7 -31 -37 0
8 37 44 0
-8 -37 -44 0
5 6 38 0
-5 -6 -38 0
6 19 38 0
-6 -19 -38 0
7 32 38 0
-7 -32 -38 0
8 38 45 0
-8 -38 -45 0
5 7 39 0
-5 -7 -39 0
6 20 39 0
-6 -20 -39 0
7 33 39 0
-7 -33 -39 0
8 39 46 0
-8 -39 -46 0
5 8 40 0
-5 -8 -40 0
6 21 40 0
-6 -21 -40 0
7 34 40 0
-7 -34 -40 0
8 40 47 0
-8 -40 -47 0
5 9 41 0
-5 -9 -41 0
6 22 41 0
-6 -22 -41 0
7 35 41 0
-7 -35 -41 0
8 41 48 0
-8 -41 -48 0
5 10 42 0
-5 -10 -42 0
6 23 42 0
-6 -23 -42 0
7 36 42 0
-7 -36 -42 0
8 42 49 0
-8 -42 -49 0
5 11 43 0
-5 -11 -43 0
6 24 43 0
-6 -24 -43 0
7 37 43 0
-7 -37 -43 0
8 43 50 0
-8 -43 -50 0
5 12 44 0
-5 -12 -44 0
6 25 44 0
-6 -25 -44 0
7 38 44 0
-7 -38 -44 0
8 44 51 0
-8 -44 -51 0
5 13 45 0
-5 -13 -45 0
6 26 45 0
-6 -26 -45 0
7 39 45 0
-7 -39 -45 0
8 45 52 0
-8 -45 -52 0
1 4 46 0
-1 -4 -46 0
5 14 46 0
-5 -14 -46 0
6 27 46 0
-6 -27 -46 0
7 40 46 0
-7 -40 -46 0
8 46 53 0
-8 -46 -53 0
2 4 47 0
-2 -4 -47 0
5 15 47 0
-5 -15 -47 0
6 28 47 0
-6 -28 -47 0
7 41 47 0
-7 -41 -47 0
8 47 54 0
-8 -47 -54 0
3 4 48 0
-3 -4 -48 0
5 16 48 0
-5 -16 -48 0
6 29 48 0
-6 -29 -48 0
7 42 48 0
-7 -42 -48 0
8 48 55 0
-8 -48 -55 0
4 49 0
-4 -49 0
5 17 49 0
-5 -17 -49 0
6 30 49 0
-6 -30 -49 0
7 43 49 0
-7 -43 -49 0
8 49 56 0
-8 -49 -56 0
4 5 50 0
-4 -5 -50 0
5 18 50 0
-5 -18 -50 0
6 31 50 0
-6 -31 -50 0
7 44 50 0
-7 -44 -50 0
4 6 51 0
-4 -6 -51 0
5 19 51 0
-5 -19 -51 0
6 32 51 0
-6 -32 -51 0
7 45 51 0
-7 -45 -51 0
4 7 52 0
-4 -7 -52 0
5 20 52 0
-5 -20 -52 0
6 33 52 0
-6 -33 -52 0
7 46 52 0
-7 -46 -52 0
4 8 53 0
-4 -8 -53 0
5 21 53 0
-5 -21 -53 0
6 34 53 0
-6 -34 -53 0
7 47 53 0
-7 -47 -53 0
4 9 54 0
-4 -9 -54 0
5 22 54 0
-5 -22 -54 0
6 35 54 0
-6 -35 -54 0
7 48 54 0
-7 -48 -54 0
4 10 55 0
-4 -10 -55 0
5 23 55 0
-5 -23 -55 0
6 36 55 0
-6 -36 -55 0
7 49 55 0
-7 -49 -55 0
4 11 56 0
-4 -11 -56 0
5 24 56 0
-5 -24 -56 0
6 37 56 0
-6 -37 -56 0
7 50 56 0
-7 -50 -56 0
