certificates/rado_a13_c97_N56.drat
4 7 -56 0
-50 -56 0
d -50 -7 -56 0
11 -51 -52 50 0
-11 -53 -56 0
-52 11 50 0
d 11 -51 -52 50 0
-53 -56 0
d -11 -53 -56 0
11 -54 -56 0
-54 -56 0
d 11 -54 -56 0
-11 -55 -56 0
-55 -56 0
d -11 -55 -56 0
11 -56 0
-56 0
4 -11 0
-4 -11 0
d -4 -8 -11 0
-11 0
10 0
4 0
-37 0
-43 0
-55 0
-7 0
-49 0
5 0
0
